
<<< setup


<<< generate

Version identifier: 12.10.0.0 | 2019-11-26 | 843d4de2ae
CPXPARAM_TimeLimit                               1200
Tried aggregator 3 times.
MIP Presolve eliminated 5121641 rows and 2889405 columns.
MIP Presolve modified 412614 coefficients.
Aggregator did 999 substitutions.
Reduced MIP has 120410 rows, 121146 columns, and 775432 nonzeros.
Reduced MIP has 121096 binaries, 0 generals, 0 SOSs, and 0 indicators.
Presolve time = 8.00 sec. (4883.01 ticks)
Found incumbent of value 0.000000 after 13.03 sec. (6756.08 ticks)
Probing fixed 2766 vars, tightened 0 bounds.
Probing time = 50.94 sec. (10047.83 ticks)
Tried aggregator 1 time.
Detecting symmetries...
MIP Presolve eliminated 2766 rows and 2766 columns.
Reduced MIP has 117644 rows, 118380 columns, and 756904 nonzeros.
Reduced MIP has 118330 binaries, 0 generals, 0 SOSs, and 0 indicators.
Presolve time = 0.92 sec. (484.67 ticks)
Probing time = 0.36 sec. (60.98 ticks)
Clique table members: 422871.
MIP emphasis: balance optimality and feasibility.
MIP search method: dynamic search.
Parallel mode: deterministic, using up to 4 threads.
Root relaxation solution time = 4.59 sec. (3026.11 ticks)

        Nodes                                         Cuts/
   Node  Left     Objective  IInf  Best Integer    Best Bound    ItCnt     Gap

*     0+    0                            0.0000   119602.0000              --- 
      0     0    65980.0000   515        0.0000    65980.0000    11421     --- 
      0     0    65980.0000   515        0.0000       Cuts: 9    11614     --- 
      0     0    65980.0000   515        0.0000    Cuts: 7627    16409     --- 
      0     0    65980.0000   515        0.0000    Cuts: 2751    16506     --- 
*     0+    0                         6671.0000    65980.0000           889.06%
      0     0    65980.0000   515     6671.0000    Cuts: 9811    23243  889.06%
Heuristic still looking.
      0     2    65980.0000   213     6671.0000    65980.0000    23243  889.06%
Elapsed time = 360.34 sec. (146806.86 ticks, tree = 0.02 MB, solutions = 2)
      1     3    65980.0000   211     6671.0000    65980.0000    23297  889.06%
      2     4    65980.0000   378     6671.0000    65980.0000    29664  889.06%
      3     3    65980.0000   411     6671.0000    65980.0000    43568  889.06%
      4     4    65980.0000   599     6671.0000    65980.0000    30647  889.06%
      5     5    65980.0000   536     6671.0000    65980.0000    36683  889.06%
      6     8    65980.0000   469     6671.0000    65980.0000    67757  889.06%
      7     7    65980.0000   496     6671.0000    65980.0000    74421  889.06%
      8     5    65980.0000   477     6671.0000    65980.0000    43937  889.06%
      9     6    65980.0000   444     6671.0000    65980.0000    58254  889.06%
     11     9    65980.0000   440     6671.0000    65980.0000    93615  889.06%
Elapsed time = 521.05 sec. (198514.57 ticks, tree = 0.13 MB, solutions = 2)
     12    12    65980.0000   564     6671.0000    65980.0000   135140  889.06%
     13    11    65980.0000   396     6671.0000    65980.0000   160102  889.06%
     14    11    65980.0000   416     6671.0000    65980.0000   130854  889.06%
     15    17    65980.0000   410     6671.0000    65980.0000   270022  889.06%
     16    13    65980.0000   374     6671.0000    65980.0000   158373  889.06%
     18    14    65980.0000   308     6671.0000    65980.0000   181693  889.06%
     19    15    65980.0000   390     6671.0000    65980.0000   246945  889.06%
     20    19    65980.0000   303     6671.0000    65980.0000   320445  889.06%
     21    18    65980.0000   378     6671.0000    65980.0000   293693  889.06%
     23    20    65980.0000   300     6671.0000    65980.0000   320672  889.06%
Elapsed time = 616.30 sec. (233068.54 ticks, tree = 0.42 MB, solutions = 2)
     24    21    65980.0000   384     6671.0000    65980.0000   343358  889.06%
     28    22    65980.0000   304     6671.0000    65980.0000   323573  889.06%
     29    23    65980.0000   315     6671.0000    65980.0000   327642  889.06%
     30    23    65980.0000   340     6671.0000    65980.0000   371294  889.06%
     31    24    65980.0000   361     6671.0000    65980.0000   373147  889.06%
     33    22    65980.0000   373     6671.0000    65980.0000   349298  889.06%
     34    24    65980.0000   391     6671.0000    65980.0000   392764  889.06%
     35    29    65980.0000   357     6671.0000    65980.0000   413240  889.06%
     36    26    65980.0000   370     6671.0000    65980.0000   375519  889.06%
     37    34    65980.0000   358     6671.0000    65980.0000   413516  889.06%
Elapsed time = 843.66 sec. (255648.19 ticks, tree = 1.00 MB, solutions = 2)
     38    23    65980.0000   377     6671.0000    65980.0000   368042  889.06%
     39    30    65980.0000   292     6671.0000    65980.0000   415832  889.06%
     40    25    65980.0000   374     6671.0000    65980.0000   399478  889.06%
     41    42    65980.0000   386     6671.0000    65980.0000   472269  889.06%
     43    44    65980.0000   374     6671.0000    65980.0000   476145  889.06%
     45    38    65980.0000   374     6671.0000    65980.0000   461976  889.06%
     46    46    65980.0000   351     6671.0000    65980.0000   483778  889.06%
     48    45    65980.0000   364     6671.0000    65980.0000   492013  889.06%
     49    46    65980.0000   367     6671.0000    65980.0000   494074  889.06%
     50    47    65980.0000   361     6671.0000    65980.0000   495546  889.06%
Elapsed time = 997.76 sec. (296314.10 ticks, tree = 1.43 MB, solutions = 2)
     51    48    65980.0000   395     6671.0000    65980.0000   497255  889.06%
     54    46    65980.0000   292     6671.0000    65980.0000   504849  889.06%
     58    48    65980.0000   297     6671.0000    65980.0000   507786  889.06%
     61    48    65980.0000   354     6671.0000    65980.0000   498002  889.06%
     65    49    65980.0000   362     6671.0000    65980.0000   500128  889.06%
     70    54    65980.0000   274     6671.0000    65980.0000   515581  889.06%
     75    55    65980.0000   273     6671.0000    65980.0000   517660  889.06%
     79    58    65980.0000   278     6671.0000    65980.0000   520474  889.06%
     81    60    65980.0000   285     6671.0000    65980.0000   523060  889.06%
     83    54    65980.0000   398     6671.0000    65980.0000   507082  889.06%
Elapsed time = 1051.30 sec. (310620.63 ticks, tree = 1.85 MB, solutions = 2)
     85    60    65980.0000   269     6671.0000    65980.0000   528117  889.06%
     87    60    65980.0000   270     6671.0000    65980.0000   532190  889.06%
     89    57    65980.0000   346     6671.0000    65980.0000   517744  889.06%
     92    61    65980.0000   296     6671.0000    65980.0000   534589  889.06%
     93    70    65980.0000   365     6671.0000    65980.0000   569487  889.06%
     95    62    65980.0000   309     6671.0000    65980.0000   541787  889.06%
     96    43    65980.0000   352     6671.0000    65980.0000   498065  889.06%
     98    63    65980.0000   272     6671.0000    65980.0000   544632  889.06%
    102    73    65980.0000   349     6671.0000    65980.0000   577317  889.06%
    108    77    65980.0000   303     6671.0000    65980.0000   582077  889.06%
Elapsed time = 1140.09 sec. (328814.47 ticks, tree = 2.96 MB, solutions = 2)
    111    75    65980.0000   343     6671.0000    65980.0000   591033  889.06%
    112    76    65980.0000   386     6671.0000    65980.0000   595281  889.06%
    114    77    65980.0000   357     6671.0000    65980.0000   597770  889.06%
    115    78    65980.0000   330     6671.0000    65980.0000   600137  889.06%
    121    92    65980.0000   281     6671.0000    65980.0000   628717  889.06%
    124   101    65980.0000   285     6671.0000    65980.0000   639202  889.06%
    126    93    65980.0000   276     6671.0000    65980.0000   630904  889.06%
    130    94    65980.0000   259     6671.0000    65980.0000   632436  889.06%
    132    96    65980.0000   269     6671.0000    65980.0000   634159  889.06%
    135   102    infeasible           6671.0000    65980.0000   647579  889.06%
Elapsed time = 1183.13 sec. (343374.74 ticks, tree = 3.89 MB, solutions = 2)
    143    99    65980.0000   270     6671.0000    65980.0000   638195  889.06%
    145   105    infeasible           6671.0000    65980.0000   650242  889.06%
    147   111    65980.0000   345     6671.0000    65980.0000   667310  889.06%
    148   106    65980.0000   264     6671.0000    65980.0000   651399  889.06%

Implied bound cuts applied:  122
Flow cuts applied:  4
Mixed integer rounding cuts applied:  974

Root node processing (before b&c):
  Real time             =  354.56 sec. (145072.14 ticks)
Parallel b&c, 4 threads:
  Real time             =  846.11 sec. (208946.07 ticks)
  Sync time (average)   =  141.38 sec.
  Wait time (average)   =    0.00 sec.
                          ------------
Total (root+branch&cut) = 1200.67 sec. (354018.21 ticks)

<<< solve


OBJECTIVE: 6671

<<< post process


<<< done

